NAME : MM21_depots
COMMENT : Instance 21 in MD algorithm. Coordinates of depots and vhcl speeds given.
TYPE : TSP
DIMENSION : 5
EDGE_WEIGHT_TYPE : ATT
NODE_COORD_SECTION
251 58.2249 11.9215 1
252 54.0739 93.9829 1
253 86.9941 64.5552 1
254 26.4779 47.9463 1
255 31.8074 63.9317 1
EOF
